0000000000000000
0000000000000000
0000000000000000
0000000000000000
0000111111110000
0000111111111000
0000000000111000
0000000000011100
0000000000001100
0000010000001100
0000010000001100
0000010000001100
0000010000001100
0000000000000100
0000000000000000
0000000000000000
